
Gurobi 9.5.2 (mac64[arm]) logging started Wed Apr 19 19:55:31 2023

Set parameter LogFile to value "Java/output/iterative_model/scenario_seed_1_nJob_40_machineCount_1/mip_increment_2/log.txt"
Gurobi Optimizer version 9.5.2 build v9.5.2rc0 (mac64[arm])
Thread count: 8 physical cores, 8 logical processors, using up to 8 threads
Optimize a model with 1051 rows, 6560 columns and 43565 nonzeros
Model fingerprint: 0x1f1d0b6f
Variable types: 0 continuous, 6560 integer (6560 binary)
Coefficient statistics:
  Matrix range     [1e+00, 3e+02]
  Objective range  [5e+01, 1e+07]
  Bounds range     [1e+00, 1e+00]
  RHS range        [1e+00, 1e+00]
Found heuristic solution: objective 4.384384e+07
Presolve removed 40 rows and 476 columns
Presolve time: 0.07s
Presolved: 1011 rows, 6084 columns, 38997 nonzeros
Variable types: 0 continuous, 6084 integer (6076 binary)
Found heuristic solution: objective 2.751027e+07

Root relaxation: objective 9.718635e+03, 1214 iterations, 0.03 seconds (0.07 work units)

    Nodes    |    Current Node    |     Objective Bounds      |     Work
 Expl Unexpl |  Obj  Depth IntInf | Incumbent    BestBd   Gap | It/Node Time

     0     0 9718.63539    0  100 2.7510e+07 9718.63539   100%     -    0s
H    0     0                    5009376.0000 9718.63539   100%     -    0s
H    0     0                    2630368.0000 9718.63539   100%     -    0s
H    0     0                    1274720.0000 9803.02545  99.2%     -    0s
     0     0 9803.02545    0  146 1274720.00 9803.02545  99.2%     -    0s
H    0     0                    1274560.0000 9803.02545  99.2%     -    0s
H    0     0                    1274496.0000 9803.02545  99.2%     -    0s
H    0     0                    1251136.0000 9803.02545  99.2%     -    0s
     0     0 9817.91546    0  164 1251136.00 9817.91546  99.2%     -    0s
     0     0 9818.34550    0  150 1251136.00 9818.34550  99.2%     -    0s
     0     0 9818.34550    0  152 1251136.00 9818.34550  99.2%     -    0s
     0     0 9851.29597    0  185 1251136.00 9851.29597  99.2%     -    0s
H    0     0                    1251104.0000 9851.29597  99.2%     -    0s
     0     0 9851.57939    0  188 1251104.00 9851.57939  99.2%     -    0s
     0     0 9851.57939    0  188 1251104.00 9851.57939  99.2%     -    0s
H    0     0                    10528.000000 9851.57939  6.42%     -    0s
     0     0 9897.99977    0  191 10528.0000 9897.99977  5.98%     -    0s
     0     0 9897.99977    0  110 10528.0000 9897.99977  5.98%     -    0s
     0     0 9897.99977    0  190 10528.0000 9897.99977  5.98%     -    0s
     0     0 9898.19906    0  181 10528.0000 9898.19906  5.98%     -    0s
     0     0 9907.71978    0  199 10528.0000 9907.71978  5.89%     -    0s
     0     0 9912.14535    0  193 10528.0000 9912.14535  5.85%     -    0s
     0     0 9912.14535    0  193 10528.0000 9912.14535  5.85%     -    0s
     0     0 9937.42007    0  242 10528.0000 9937.42007  5.61%     -    0s
     0     0 9938.01144    0  234 10528.0000 9938.01144  5.60%     -    0s
     0     0 9938.24555    0  234 10528.0000 9938.24555  5.60%     -    0s
     0     0 9938.26728    0  236 10528.0000 9938.26728  5.60%     -    0s
     0     0 9951.95748    0  241 10528.0000 9951.95748  5.47%     -    0s
     0     0 9957.31875    0  243 10528.0000 9957.31875  5.42%     -    0s
     0     0 9958.68598    0  245 10528.0000 9958.68598  5.41%     -    0s
     0     0 9958.73250    0  251 10528.0000 9958.73250  5.41%     -    0s
     0     0 9977.46095    0  244 10528.0000 9977.46095  5.23%     -    0s
     0     0 9981.59710    0  252 10528.0000 9981.59710  5.19%     -    0s
     0     0 9983.62606    0  261 10528.0000 9983.62606  5.17%     -    0s
     0     0 9984.12668    0  264 10528.0000 9984.12668  5.17%     -    0s
     0     0 9984.20187    0  269 10528.0000 9984.20187  5.17%     -    0s
     0     0 9995.48942    0  282 10528.0000 9995.48942  5.06%     -    1s
     0     0 9998.61981    0  278 10528.0000 9998.61981  5.03%     -    1s
     0     0 9999.42776    0  282 10528.0000 9999.42776  5.02%     -    1s
     0     0 9999.61624    0  277 10528.0000 9999.61624  5.02%     -    1s
     0     0 10009.7547    0  290 10528.0000 10009.7547  4.92%     -    1s
     0     0 10012.5398    0  295 10528.0000 10012.5398  4.90%     -    1s
     0     0 10014.3227    0  292 10528.0000 10014.3227  4.88%     -    1s
     0     0 10014.5104    0  296 10528.0000 10014.5104  4.88%     -    1s
     0     0 10025.7624    0  313 10528.0000 10025.7624  4.77%     -    1s
H    0     0                    10496.000000 10025.7624  4.48%     -    1s
     0     0 10029.1498    0  312 10496.0000 10029.1498  4.45%     -    1s
     0     0 10031.3501    0  329 10496.0000 10031.3501  4.43%     -    1s
     0     0 10031.9479    0  324 10496.0000 10031.9479  4.42%     -    1s
     0     0 10032.0118    0  320 10496.0000 10032.0118  4.42%     -    1s
     0     0 10046.7609    0  315 10496.0000 10046.7609  4.28%     -    1s
     0     0 10053.4844    0  318 10496.0000 10053.4844  4.22%     -    1s
     0     0 10054.1661    0  322 10496.0000 10054.1661  4.21%     -    1s
     0     0 10054.1894    0  319 10496.0000 10054.1894  4.21%     -    1s
     0     0 10069.9914    0  328 10496.0000 10069.9914  4.06%     -    1s
     0     0 10072.7379    0  328 10496.0000 10072.7379  4.03%     -    1s
     0     0 10074.3020    0  341 10496.0000 10074.3020  4.02%     -    1s
     0     0 10075.5564    0  343 10496.0000 10075.5564  4.01%     -    1s
     0     0 10075.8244    0  345 10496.0000 10075.8244  4.00%     -    1s
     0     0 10082.3933    0  331 10496.0000 10082.3933  3.94%     -    1s
     0     0 10083.2558    0  339 10496.0000 10083.2558  3.93%     -    1s
     0     0 10084.8328    0  341 10496.0000 10084.8328  3.92%     -    1s
     0     0 10085.1863    0  340 10496.0000 10085.1863  3.91%     -    1s
     0     0 10090.9229    0  322 10496.0000 10090.9229  3.86%     -    1s
     0     0 10091.8682    0  337 10496.0000 10091.8682  3.85%     -    1s
     0     0 10092.7646    0  352 10496.0000 10092.7646  3.84%     -    1s
     0     0 10092.9374    0  347 10496.0000 10092.9374  3.84%     -    1s
H    0     0                    10400.000000 10092.9374  2.95%     -    1s
     0     0 10096.7377    0  339 10400.0000 10096.7377  2.92%     -    1s
     0     0 10096.7377    0  337 10400.0000 10096.7377  2.92%     -    1s
     0     2 10096.9196    0  335 10400.0000 10096.9196  2.91%     -    1s
* 1245   115              15    10368.000000 10307.9663  0.58%   182    4s

Cutting planes:
  Gomory: 1
  Cover: 6
  Clique: 72
  MIR: 263
  StrongCG: 76
  GUB cover: 72
  Inf proof: 4
  Zero half: 13

Explored 1364 nodes (247547 simplex iterations) in 4.69 seconds (10.47 work units)
Thread count was 8 (of 8 available processors)

Solution count 10: 10368 10400 10496 ... 2.63037e+06

Optimal solution found (tolerance 1.00e-04)
Best objective 1.036800000000e+04, best bound 1.036800000000e+04, gap 0.0000%

Gurobi 9.5.2 (mac64[arm]) logging started Wed Apr 19 19:55:36 2023

Set parameter LogFile to value "Java/output/iterative_model/scenario_seed_1_nJob_40_machineCount_1/mip_increment_2/log.txt"
Gurobi Optimizer version 9.5.2 build v9.5.2rc0 (mac64[arm])
Thread count: 8 physical cores, 8 logical processors, using up to 8 threads
Optimize a model with 1051 rows, 5206 columns and 37625 nonzeros
Model fingerprint: 0x43b689d4
Variable types: 0 continuous, 5206 integer (5206 binary)
Coefficient statistics:
  Matrix range     [1e+00, 3e+02]
  Objective range  [2e+02, 2e+06]
  Bounds range     [1e+00, 1e+00]
  RHS range        [1e+00, 1e+00]
Presolve removed 235 rows and 471 columns
Presolve time: 0.05s
Presolved: 816 rows, 4735 columns, 33130 nonzeros
Variable types: 0 continuous, 4735 integer (4727 binary)

Root relaxation: objective 6.519200e+03, 945 iterations, 0.02 seconds (0.03 work units)

    Nodes    |    Current Node    |     Objective Bounds      |     Work
 Expl Unexpl |  Obj  Depth IntInf | Incumbent    BestBd   Gap | It/Node Time

     0     0 6519.20000    0   51          - 6519.20000      -     -    0s
     0     0 6587.42627    0   88          - 6587.42627      -     -    0s
     0     0 6587.42627    0   84          - 6587.42627      -     -    0s
     0     0 6593.27071    0   96          - 6593.27071      -     -    0s
     0     0 6593.45082    0  111          - 6593.45082      -     -    0s
     0     0 6599.40302    0  108          - 6599.40302      -     -    0s
     0     0 6599.40302    0  109          - 6599.40302      -     -    0s
     0     0 6693.26708    0   62          - 6693.26708      -     -    0s
     0     0 6697.12134    0   69          - 6697.12134      -     -    0s
     0     0 6698.75618    0   80          - 6698.75618      -     -    0s
     0     0 6698.75618    0   80          - 6698.75618      -     -    0s
     0     0 6753.69120    0   89          - 6753.69120      -     -    0s
H    0     0                    2615908.0000 6753.69120   100%     -    0s
     0     0 6805.28756    0   88 2615908.00 6805.28756   100%     -    0s
H    0     0                    58588.000000 6807.71429  88.4%     -    0s
H    0     0                    53780.000000 6807.71429  87.3%     -    0s
     0     0 6807.71429    0   86 53780.0000 6807.71429  87.3%     -    0s
     0     0 6807.71429    0   85 53780.0000 6807.71429  87.3%     -    0s
     0     0 6825.00000    0   70 53780.0000 6825.00000  87.3%     -    0s
     0     0 6825.00000    0   58 53780.0000 6825.00000  87.3%     -    0s
H    0     0                    53572.000000 6825.00000  87.3%     -    0s
H    0     0                    53556.000000 6825.00000  87.3%     -    0s
     0     0 6825.00000    0   77 53556.0000 6825.00000  87.3%     -    0s
H    0     0                    53316.000000 6825.00000  87.2%     -    0s
     0     0 6825.00000    0   83 53316.0000 6825.00000  87.2%     -    0s
     0     0 6825.00000    0   72 53316.0000 6825.00000  87.2%     -    0s
     0     0 6825.00000    0   87 53316.0000 6825.00000  87.2%     -    0s
     0     0 6827.06428    0  101 53316.0000 6827.06428  87.2%     -    0s
H    0     0                    53308.000000 6827.06428  87.2%     -    0s
     0     0 6827.23788    0   87 53308.0000 6827.23788  87.2%     -    0s
     0     0 6827.23788    0   89 53308.0000 6827.23788  87.2%     -    0s
     0     0 6876.78716    0  105 53308.0000 6876.78716  87.1%     -    0s
H    0     0                    31860.000000 6876.78716  78.4%     -    0s
     0     0 6886.66865    0   98 31860.0000 6886.66865  78.4%     -    0s
     0     0 6886.82642    0   91 31860.0000 6886.82642  78.4%     -    0s
     0     0 6926.31641    0   90 31860.0000 6926.31641  78.3%     -    0s
H    0     0                    31812.000000 6926.31641  78.2%     -    0s
H    0     0                    27780.000000 6926.31641  75.1%     -    0s
     0     0 6944.74108    0   86 27780.0000 6944.74108  75.0%     -    0s
     0     0 6954.30723    0  103 27780.0000 6954.30723  75.0%     -    0s
     0     0 6954.81108    0  108 27780.0000 6954.81108  75.0%     -    0s
     0     0 6954.81108    0  108 27780.0000 6954.81108  75.0%     -    0s
     0     0 7021.47564    0  100 27780.0000 7021.47564  74.7%     -    0s
     0     0 7057.60891    0   84 27780.0000 7057.60891  74.6%     -    0s
     0     0 7071.70543    0  103 27780.0000 7071.70543  74.5%     -    0s
     0     0 7075.03368    0  124 27780.0000 7075.03368  74.5%     -    0s
     0     0 7075.03368    0  125 27780.0000 7075.03368  74.5%     -    0s
     0     0 7363.25899    0  121 27780.0000 7363.25899  73.5%     -    0s
     0     0 7381.80517    0  128 27780.0000 7381.80517  73.4%     -    0s
     0     0 7381.93109    0  128 27780.0000 7381.93109  73.4%     -    0s
     0     0 7499.35681    0  116 27780.0000 7499.35681  73.0%     -    0s
     0     0 7507.36421    0  115 27780.0000 7507.36421  73.0%     -    0s
     0     0 7514.13255    0  128 27780.0000 7514.13255  73.0%     -    0s
     0     0 7514.38130    0  128 27780.0000 7514.38130  73.0%     -    0s
     0     0 7847.97901    0  105 27780.0000 7847.97901  71.7%     -    0s
H    0     0                    27748.000000 7847.97901  71.7%     -    0s
     0     0 7855.59515    0  140 27748.0000 7855.59515  71.7%     -    0s
     0     0 7861.06381    0  134 27748.0000 7861.06381  71.7%     -    0s
     0     0 7863.05745    0  145 27748.0000 7863.05745  71.7%     -    0s
     0     0 7863.12070    0  144 27748.0000 7863.12070  71.7%     -    0s
     0     0 8326.06468    0  121 27748.0000 8326.06468  70.0%     -    0s
H    0     0                    18508.000000 8326.06468  55.0%     -    0s
     0     0 8359.75251    0  117 18508.0000 8359.75251  54.8%     -    0s
     0     0 8378.77554    0  122 18508.0000 8378.77554  54.7%     -    0s
     0     0 8381.64403    0  136 18508.0000 8381.64403  54.7%     -    0s
     0     0 8382.62244    0  140 18508.0000 8382.62244  54.7%     -    0s
     0     0 8778.33255    0  120 18508.0000 8778.33255  52.6%     -    1s
H    0     0                    18492.000000 8778.33255  52.5%     -    1s
     0     0 8813.15261    0  137 18492.0000 8813.15261  52.3%     -    1s
     0     0 8815.62904    0  143 18492.0000 8815.62904  52.3%     -    1s
     0     0 8817.26155    0  149 18492.0000 8817.26155  52.3%     -    1s
     0     0 9155.70296    0  106 18492.0000 9155.70296  50.5%     -    1s
     0     0 9281.13898    0  125 18492.0000 9281.13898  49.8%     -    1s
     0     0 9292.28731    0  134 18492.0000 9292.28731  49.7%     -    1s
     0     0 9292.75177    0  131 18492.0000 9292.75177  49.7%     -    1s
     0     0 9386.35245    0  127 18492.0000 9386.35245  49.2%     -    1s
     0     0 9393.35033    0  136 18492.0000 9393.35033  49.2%     -    1s
     0     0 9401.59936    0  158 18492.0000 9401.59936  49.2%     -    1s
     0     0 9401.74570    0  159 18492.0000 9401.74570  49.2%     -    1s
     0     0 9641.09037    0  168 18492.0000 9641.09037  47.9%     -    1s
     0     0 9667.96223    0  151 18492.0000 9667.96223  47.7%     -    1s
     0     0 9668.46270    0  159 18492.0000 9668.46270  47.7%     -    1s
     0     0 10152.2088    0  126 18492.0000 10152.2088  45.1%     -    1s
     0     0 10157.3847    0  135 18492.0000 10157.3847  45.1%     -    1s
     0     0 10158.8887    0  139 18492.0000 10158.8887  45.1%     -    1s
     0     0 10364.4640    0  133 18492.0000 10364.4640  44.0%     -    1s
     0     0 10368.5915    0  134 18492.0000 10368.5915  43.9%     -    1s
     0     0 10368.7214    0  141 18492.0000 10368.7214  43.9%     -    1s
     0     0 10802.8035    0  142 18492.0000 10802.8035  41.6%     -    1s
     0     0 10876.1532    0  135 18492.0000 10876.1532  41.2%     -    1s
     0     0 10877.6495    0  126 18492.0000 10877.6495  41.2%     -    1s
     0     0 11114.2996    0  122 18492.0000 11114.2996  39.9%     -    1s
     0     0 11121.2043    0  129 18492.0000 11121.2043  39.9%     -    1s
     0     0 11124.7272    0  127 18492.0000 11124.7272  39.8%     -    1s
     0     0 11317.0094    0  120 18492.0000 11317.0094  38.8%     -    1s
     0     0 11426.6456    0  129 18492.0000 11426.6456  38.2%     -    1s
     0     0 11430.8552    0  126 18492.0000 11430.8552  38.2%     -    1s
     0     0 11431.4853    0  134 18492.0000 11431.4853  38.2%     -    1s
     0     0 11754.2262    0  153 18492.0000 11754.2262  36.4%     -    1s
H    0     0                    18332.000000 11754.2262  35.9%     -    1s
     0     0 11839.7418    0  158 18332.0000 11839.7418  35.4%     -    1s
     0     0 11848.4276    0  154 18332.0000 11848.4276  35.4%     -    1s
H    0     0                    18316.000000 11848.4276  35.3%     -    1s
     0     0 11850.2546    0  177 18316.0000 11850.2546  35.3%     -    1s
     0     0 11980.2076    0  155 18316.0000 11980.2076  34.6%     -    1s
H    0     0                    16372.000000 11980.2076  26.8%     -    1s
     0     0 11986.8600    0  180 16372.0000 11986.8600  26.8%     -    1s
     0     0 11987.9034    0  183 16372.0000 11987.9034  26.8%     -    1s
     0     0 11996.0000    0    5 16372.0000 11996.0000  26.7%     -    1s
H    0     0                    12004.000000 11996.0000  0.07%     -    1s
H    0     0                    11996.000000 11996.0000  0.00%     -    1s
     0     0 11996.0000    0    5 11996.0000 11996.0000  0.00%     -    1s

Cutting planes:
  Gomory: 6
  Cover: 7
  Clique: 37
  MIR: 61
  StrongCG: 27
  GUB cover: 91
  Inf proof: 1
  Zero half: 15
  RLT: 2

Explored 1 nodes (17764 simplex iterations) in 1.52 seconds (1.99 work units)
Thread count was 8 (of 8 available processors)

Solution count 10: 11996 12004 16372 ... 31812

Optimal solution found (tolerance 1.00e-04)
Best objective 1.199600000000e+04, best bound 1.199600000000e+04, gap 0.0000%

Gurobi 9.5.2 (mac64[arm]) logging started Wed Apr 19 19:55:37 2023

Set parameter LogFile to value "Java/output/iterative_model/scenario_seed_1_nJob_40_machineCount_1/mip_increment_2/log.txt"
Gurobi Optimizer version 9.5.2 build v9.5.2rc0 (mac64[arm])
Thread count: 8 physical cores, 8 logical processors, using up to 8 threads
Optimize a model with 1054 rows, 3171 columns and 22714 nonzeros
Model fingerprint: 0x1d2b3cdb
Variable types: 0 continuous, 3171 integer (3171 binary)
Coefficient statistics:
  Matrix range     [1e+00, 3e+02]
  Objective range  [2e+02, 2e+05]
  Bounds range     [1e+00, 1e+00]
  RHS range        [1e+00, 1e+00]
Presolve removed 598 rows and 554 columns
Presolve time: 0.04s
Presolved: 456 rows, 2617 columns, 17678 nonzeros
Variable types: 0 continuous, 2617 integer (2613 binary)

Root relaxation: objective 1.613616e+04, 1945 iterations, 0.04 seconds (0.06 work units)

    Nodes    |    Current Node    |     Objective Bounds      |     Work
 Expl Unexpl |  Obj  Depth IntInf | Incumbent    BestBd   Gap | It/Node Time

     0     0 16136.1560    0   77          - 16136.1560      -     -    0s
H    0     0                    620171.00000 16136.1560  97.4%     -    0s
H    0     0                    389227.00000 16136.1560  95.9%     -    0s
H    0     0                    334843.00000 16136.1560  95.2%     -    0s
     0     0 16417.0974    0  142 334843.000 16417.0974  95.1%     -    0s
H    0     0                    333741.00000 16417.0974  95.1%     -    0s
H    0     0                    179673.00000 16417.0974  90.9%     -    0s
H    0     0                    96439.000000 16417.0974  83.0%     -    0s
     0     0 16417.1645    0  139 96439.0000 16417.1645  83.0%     -    0s
H    0     0                    75177.000000 16497.0574  78.1%     -    0s
H    0     0                    75043.000000 16497.0574  78.0%     -    0s
     0     0 16497.0574    0  151 75043.0000 16497.0574  78.0%     -    0s
H    0     0                    75023.000000 16497.0574  78.0%     -    0s
     0     0 16499.9316    0  155 75023.0000 16499.9316  78.0%     -    0s
     0     0 16499.9398    0  155 75023.0000 16499.9398  78.0%     -    0s
H    0     0                    51683.000000 16499.9398  68.1%     -    0s
     0     0 16978.4136    0  167 51683.0000 16978.4136  67.1%     -    0s
H    0     0                    51681.000000 16978.4136  67.1%     -    0s
H    0     0                    43055.000000 16978.4136  60.6%     -    0s
     0     0 17268.0014    0  180 43055.0000 17268.0014  59.9%     -    0s
     0     0 17308.8741    0  176 43055.0000 17308.8741  59.8%     -    0s
     0     0 17314.6111    0  188 43055.0000 17314.6111  59.8%     -    0s
     0     0 17314.9013    0  185 43055.0000 17314.9013  59.8%     -    0s
     0     0 19856.8980    0  167 43055.0000 19856.8980  53.9%     -    0s
H    0     0                    42573.000000 19856.8980  53.4%     -    0s
     0     0 21694.0266    0  142 42573.0000 21694.0266  49.0%     -    0s
     0     0 22156.4775    0  183 42573.0000 22156.4775  48.0%     -    0s
     0     0 22161.3969    0  190 42573.0000 22161.3969  47.9%     -    0s
     0     0 22182.5208    0  173 42573.0000 22182.5208  47.9%     -    0s
     0     0 22184.3360    0  175 42573.0000 22184.3360  47.9%     -    0s
     0     0 23729.7560    0  199 42573.0000 23729.7560  44.3%     -    0s
     0     0 23771.6825    0  234 42573.0000 23771.6825  44.2%     -    0s
     0     0 23777.0973    0  231 42573.0000 23777.0973  44.1%     -    0s
     0     0 23777.7084    0  231 42573.0000 23777.7084  44.1%     -    0s
     0     0 24646.0975    0  210 42573.0000 24646.0975  42.1%     -    0s
     0     0 24812.4459    0  222 42573.0000 24812.4459  41.7%     -    0s
     0     0 24910.6609    0  202 42573.0000 24910.6609  41.5%     -    0s
     0     0 24918.5371    0  208 42573.0000 24918.5371  41.5%     -    0s
     0     0 24933.4806    0  210 42573.0000 24933.4806  41.4%     -    0s
     0     0 24935.2855    0  204 42573.0000 24935.2855  41.4%     -    0s
     0     0 27590.7537    0  207 42573.0000 27590.7537  35.2%     -    0s
     0     0 27725.4105    0  202 42573.0000 27725.4105  34.9%     -    1s
     0     0 27736.0438    0  209 42573.0000 27736.0438  34.9%     -    1s
     0     0 27736.4116    0  210 42573.0000 27736.4116  34.8%     -    1s
     0     0 28272.2383    0  216 42573.0000 28272.2383  33.6%     -    1s
     0     0 28542.0093    0  222 42573.0000 28542.0093  33.0%     -    1s
     0     0 28578.9943    0  211 42573.0000 28578.9943  32.9%     -    1s
     0     0 28587.3529    0  213 42573.0000 28587.3529  32.9%     -    1s
     0     0 30314.8570    0  233 42573.0000 30314.8570  28.8%     -    1s
     0     0 30314.8570    0   98 42573.0000 30314.8570  28.8%     -    1s
     0     0 30314.8570    0  156 42573.0000 30314.8570  28.8%     -    1s
     0     0 30314.8570    0  181 42573.0000 30314.8570  28.8%     -    1s
     0     0 30314.8570    0  176 42573.0000 30314.8570  28.8%     -    1s
     0     0 30760.7525    0  197 42573.0000 30760.7525  27.7%     -    1s
     0     0 30835.0672    0  196 42573.0000 30835.0672  27.6%     -    1s
     0     0 30869.1414    0  198 42573.0000 30869.1414  27.5%     -    1s
     0     0 30877.1718    0  196 42573.0000 30877.1718  27.5%     -    1s
     0     0 30878.1598    0  199 42573.0000 30878.1598  27.5%     -    1s
     0     0 31908.9951    0  211 42573.0000 31908.9951  25.0%     -    1s
     0     0 32326.6166    0  216 42573.0000 32326.6166  24.1%     -    1s
     0     0 32380.1505    0  207 42573.0000 32380.1505  23.9%     -    1s
     0     0 32423.2409    0  213 42573.0000 32423.2409  23.8%     -    1s
     0     0 32423.8794    0  214 42573.0000 32423.8794  23.8%     -    1s
     0     0 32923.9184    0  211 42573.0000 32923.9184  22.7%     -    1s
H    0     0                    38773.000000 32923.9184  15.1%     -    1s
     0     0 33044.5879    0  193 38773.0000 33044.5879  14.8%     -    1s
     0     0 33053.2703    0  212 38773.0000 33053.2703  14.8%     -    1s
     0     0 33394.0828    0  200 38773.0000 33394.0828  13.9%     -    1s
H    0     0                    34445.000000 33394.0828  3.05%     -    1s
     0     0 33679.2206    0  212 34445.0000 33679.2206  2.22%     -    1s
     0     0 33704.6180    0  216 34445.0000 33704.6180  2.15%     -    1s
     0     0 33710.4092    0  222 34445.0000 33710.4092  2.13%     -    1s
     0     0 33972.6862    0  205 34445.0000 33972.6862  1.37%     -    1s
     0     0 33972.6862    0   53 34445.0000 33972.6862  1.37%     -    1s
     0     0     cutoff    0      34445.0000 34445.0000  0.00%     -    1s

Cutting planes:
  Gomory: 14
  Cover: 10
  Implied bound: 1
  Clique: 20
  MIR: 12
  StrongCG: 14
  GUB cover: 17
  Zero half: 12
  Mod-K: 1
  RLT: 7
  Relax-and-lift: 1

Explored 1 nodes (19102 simplex iterations) in 1.67 seconds (2.31 work units)
Thread count was 8 (of 8 available processors)

Solution count 10: 34445 38773 42573 ... 96439

Optimal solution found (tolerance 1.00e-04)
Best objective 3.444500000000e+04, best bound 3.444500000000e+04, gap 0.0000%

Gurobi 9.5.2 (mac64[arm]) logging started Wed Apr 19 19:55:39 2023

Set parameter LogFile to value "Java/output/iterative_model/scenario_seed_1_nJob_40_machineCount_1/mip_increment_2/log.txt"
Gurobi Optimizer version 9.5.2 build v9.5.2rc0 (mac64[arm])
Thread count: 8 physical cores, 8 logical processors, using up to 8 threads
Optimize a model with 2172 rows, 40016 columns and 446064 nonzeros
Model fingerprint: 0x4447f9ca
Variable types: 0 continuous, 40016 integer (40016 binary)
Coefficient statistics:
  Matrix range     [1e+00, 3e+02]
  Objective range  [2e+00, 1e+07]
  Bounds range     [1e+00, 1e+00]
  RHS range        [1e+00, 1e+00]

Warning: Completing partial solution with 39894 unfixed non-continuous variables out of 40016
User MIP start produced solution with objective 25537 (0.03s)
Loaded user MIP start with objective 25537

Presolve removed 40 rows and 2795 columns
Presolve time: 0.50s
Presolved: 2132 rows, 37221 columns, 409224 nonzeros
Variable types: 0 continuous, 37221 integer (37199 binary)

Root simplex log...

Iteration    Objective       Primal Inf.    Dual Inf.      Time
   38071    1.7444293e+04   4.094170e+03   0.000000e+00      5s
   39994    1.7470247e+04   0.000000e+00   0.000000e+00      5s

Root relaxation: objective 1.747025e+04, 39994 iterations, 4.73 seconds (11.80 work units)

    Nodes    |    Current Node    |     Objective Bounds      |     Work
 Expl Unexpl |  Obj  Depth IntInf | Incumbent    BestBd   Gap | It/Node Time

     0     0 17470.2473    0  353 25537.0000 17470.2473  31.6%     -    5s
H    0     0                    25292.000000 17470.2473  30.9%     -    5s
H    0     0                    25159.000000 17557.5009  30.2%     -    7s
H    0     0                    25157.000000 17557.5009  30.2%     -    7s
H    0     0                    25047.000000 17557.5009  29.9%     -    7s
     0     0 17557.5009    0  591 25047.0000 17557.5009  29.9%     -    7s
H    0     0                    25046.000000 17557.5009  29.9%     -    7s
H    0     0                    25045.000000 17557.5009  29.9%     -    7s
H    0     0                    24966.000000 17557.5009  29.7%     -    7s
     0     0 17565.4806    0  572 24966.0000 17565.4806  29.6%     -    8s
     0     0 17565.6615    0  603 24966.0000 17565.6615  29.6%     -    8s
     0     0 17565.6643    0  602 24966.0000 17565.6643  29.6%     -    8s
     0     0 17630.1974    0  584 24966.0000 17630.1974  29.4%     -   11s
     0     0 17630.1974    0  393 24966.0000 17630.1974  29.4%     -   15s
H    0     0                    24964.000000 17630.1974  29.4%     -   15s
H    0     0                    24960.000000 17630.1974  29.4%     -   16s
     0     0 17630.1974    0  665 24960.0000 17630.1974  29.4%     -   16s
     0     0 17642.3140    0  634 24960.0000 17642.3140  29.3%     -   18s
     0     0 17647.7865    0  639 24960.0000 17647.7865  29.3%     -   19s
     0     0 17647.8075    0  641 24960.0000 17647.8075  29.3%     -   19s
     0     0 17677.0998    0  672 24960.0000 17677.0998  29.2%     -   21s
H    0     0                    24707.000000 17677.0998  28.5%     -   21s
     0     0 17686.5974    0  731 24707.0000 17686.5974  28.4%     -   22s
     0     0 17687.9037    0  775 24707.0000 17687.9037  28.4%     -   23s
     0     0 17688.2339    0  759 24707.0000 17688.2339  28.4%     -   24s
     0     0 17688.2760    0  750 24707.0000 17688.2760  28.4%     -   24s
     0     0 17726.9842    0  762 24707.0000 17726.9842  28.3%     -   27s
H    0     0                    24705.000000 17726.9842  28.2%     -   27s
     0     0 17729.4162    0  802 24705.0000 17729.4162  28.2%     -   28s
     0     0 17730.4205    0  820 24705.0000 17730.4205  28.2%     -   28s
     0     0 17730.4763    0  828 24705.0000 17730.4763  28.2%     -   28s
     0     0 17784.0530    0  807 24705.0000 17784.0530  28.0%     -   30s
     0     0 17796.5419    0  880 24705.0000 17796.5419  28.0%     -   32s
     0     0 17799.0321    0  901 24705.0000 17799.0321  28.0%     -   32s
     0     0 17799.9499    0  908 24705.0000 17799.9499  28.0%     -   32s
     0     0 17800.1743    0  910 24705.0000 17800.1743  27.9%     -   33s
     0     0 17800.3092    0  911 24705.0000 17800.3092  27.9%     -   33s
     0     0 17800.3158    0  907 24705.0000 17800.3158  27.9%     -   33s
H    0     0                    24550.000000 17800.3158  27.5%     -   34s
     0     0 17825.0978    0  948 24550.0000 17825.0978  27.4%     -   34s
     0     0 17832.9163    0  961 24550.0000 17832.9163  27.4%     -   36s
     0     0 17834.7946    0 1001 24550.0000 17834.7946  27.4%     -   37s
     0     0 17835.2683    0  995 24550.0000 17835.2683  27.4%     -   37s
     0     0 17835.5159    0 1006 24550.0000 17835.5159  27.4%     -   37s
     0     0 17835.5943    0 1018 24550.0000 17835.5943  27.3%     -   37s
     0     0 17877.6699    0 1016 24550.0000 17877.6699  27.2%     -   39s
     0     0 17883.6385    0 1041 24550.0000 17883.6385  27.2%     -   41s
H    0     0                    24546.000000 17883.6385  27.1%     -   41s
     0     0 17884.9124    0 1056 24546.0000 17884.9124  27.1%     -   41s
     0     0 17885.3479    0 1046 24546.0000 17885.3479  27.1%     -   42s
     0     0 17885.4186    0 1064 24546.0000 17885.4186  27.1%     -   42s
     0     0 17930.8772    0 1056 24546.0000 17930.8772  26.9%     -   44s
     0     0 17934.1412    0 1047 24546.0000 17934.1412  26.9%     -   45s
     0     0 17936.3278    0 1092 24546.0000 17936.3278  26.9%     -   46s
     0     0 17936.9792    0 1115 24546.0000 17936.9792  26.9%     -   46s
     0     0 17937.3045    0 1119 24546.0000 17937.3045  26.9%     -   47s
     0     0 17937.4032    0 1113 24546.0000 17937.4032  26.9%     -   47s
     0     0 17964.2836    0 1090 24546.0000 17964.2836  26.8%     -   49s
     0     0 17968.3405    0 1121 24546.0000 17968.3405  26.8%     -   50s
     0     0 17969.7703    0 1126 24546.0000 17969.7703  26.8%     -   51s
     0     0 17970.4230    0 1139 24546.0000 17970.4230  26.8%     -   52s
     0     0 17970.6207    0 1152 24546.0000 17970.6207  26.8%     -   52s
     0     0 18065.2022    0 1121 24546.0000 18065.2022  26.4%     -   55s
     0     0 18067.8430    0 1142 24546.0000 18067.8430  26.4%     -   56s
     0     0 18069.8577    0 1169 24546.0000 18069.8577  26.4%     -   57s
     0     0 18070.2520    0 1168 24546.0000 18070.2520  26.4%     -   58s
     0     0 18097.4217    0 1201 24546.0000 18097.4217  26.3%     -   60s
     0     0 18099.5303    0 1229 24546.0000 18099.5303  26.3%     -   62s
     0     0 18100.1937    0 1237 24546.0000 18100.1937  26.3%     -   62s
     0     0 18100.4157    0 1227 24546.0000 18100.4157  26.3%     -   63s
H    0     0                    24528.000000 18100.4157  26.2%     -   65s
     0     0 18171.3239    0 1200 24528.0000 18171.3239  25.9%     -   65s
     0     0 18172.8497    0 1240 24528.0000 18172.8497  25.9%     -   70s
     0     0 18173.3069    0 1241 24528.0000 18173.3069  25.9%     -   70s
     0     0 18231.3074    0 1269 24528.0000 18231.3074  25.7%     -   73s
H    0     0                    24527.000000 18231.3074  25.7%     -   73s
     0     0 18233.0677    0 1220 24527.0000 18233.0677  25.7%     -   74s
     0     0 18233.6606    0 1265 24527.0000 18233.6606  25.7%     -   74s
     0     0 18318.8811    0 1264 24527.0000 18318.8811  25.3%     -   76s
     0     0 18321.4261    0 1266 24527.0000 18321.4261  25.3%     -   83s
     0     0 18322.2016    0 1287 24527.0000 18322.2016  25.3%     -   83s
H    0     0                    24526.000000 18322.2016  25.3%     -   84s
     0     0 18322.5124    0 1300 24526.0000 18322.5124  25.3%     -   84s
     0     0 18406.2209    0 1289 24526.0000 18406.2209  25.0%     -   86s
     0     0 18407.8396    0 1257 24526.0000 18407.8396  24.9%     -   87s
     0     0 18408.3437    0 1298 24526.0000 18408.3437  24.9%     -   87s
     0     0 18459.9435    0 1285 24526.0000 18459.9435  24.7%     -   90s
     0     0 18463.0198    0 1282 24526.0000 18463.0198  24.7%     -   91s
     0     0 18464.7029    0 1324 24526.0000 18464.7029  24.7%     -   92s
H    0     0                    24348.000000 18464.7029  24.2%     -   92s
     0     0 18465.0305    0 1326 24348.0000 18465.0305  24.2%     -   92s
     0     0 18570.9677    0 1280 24348.0000 18570.9677  23.7%     -   96s
     0     0 18573.9959    0 1335 24348.0000 18573.9959  23.7%     -   98s
     0     0 18588.1886    0 1346 24348.0000 18588.1886  23.7%     -  100s
     0     0 18589.1206    0 1338 24348.0000 18589.1206  23.7%     -  100s
     0     0 18795.5436    0 1292 24348.0000 18795.5436  22.8%     -  103s
     0     0 18797.1573    0 1301 24348.0000 18797.1573  22.8%     -  104s
     0     0 18797.8904    0 1342 24348.0000 18797.8904  22.8%     -  105s
     0     0 18965.9258    0 1319 24348.0000 18965.9258  22.1%     -  108s
     0     0 18967.6458    0 1331 24348.0000 18967.6458  22.1%     -  109s
     0     0 18968.6985    0 1345 24348.0000 18968.6985  22.1%     -  111s
     0     0 19145.1288    0 1368 24348.0000 19145.1288  21.4%     -  113s
     0     0 19147.4087    0 1365 24348.0000 19147.4087  21.4%     -  116s
     0     0 19147.9545    0 1371 24348.0000 19147.9545  21.4%     -  116s
     0     0 19360.6296    0 1369 24348.0000 19360.6296  20.5%     -  119s
     0     0 19360.9293    0 1397 24348.0000 19360.9293  20.5%     -  119s
     0     0 19612.2605    0 1318 24348.0000 19612.2605  19.5%     -  121s
     0     0 19613.4643    0 1370 24348.0000 19613.4643  19.4%     -  123s
     0     0 19918.1914    0 1397 24348.0000 19918.1914  18.2%     -  125s
     0     0 19918.7199    0 1406 24348.0000 19918.7199  18.2%     -  125s
     0     0 20154.0347    0 1348 24348.0000 20154.0347  17.2%     -  127s
     0     0 20155.4608    0 1380 24348.0000 20155.4608  17.2%     -  133s
     0     0 20480.8986    0 1391 24348.0000 20480.8986  15.9%     -  135s
     0     0 20481.6728    0 1402 24348.0000 20481.6728  15.9%     -  136s
H    0     0                    24344.000000 20481.6728  15.9%     -  138s
     0     0 20916.8021    0 1430 24344.0000 20916.8021  14.1%     -  138s
     0     0 20917.3635    0 1458 24344.0000 20917.3635  14.1%     -  138s
     0     0 22135.3148    0 1449 24344.0000 22135.3148  9.07%     -  140s
     0     0 22192.7676    0 1472 24344.0000 22192.7676  8.84%     -  140s
     0     0 22193.0854    0 1493 24344.0000 22193.0854  8.84%     -  141s
     0     0 22959.0938    0 1388 24344.0000 22959.0938  5.69%     -  146s
     0     0 22960.0423    0 1382 24344.0000 22960.0423  5.69%     -  146s
     0     0 23031.2094    0 1375 24344.0000 23031.2094  5.39%     -  149s
     0     0 23031.6926    0 1409 24344.0000 23031.6926  5.39%     -  150s
     0     0 23289.7514    0 1382 24344.0000 23289.7514  4.33%     -  152s
     0     0 23290.0661    0 1416 24344.0000 23290.0661  4.33%     -  152s
     0     0 23326.0277    0 1471 24344.0000 23326.0277  4.18%     -  153s
     0     0 23326.0277    0 1438 24344.0000 23326.0277  4.18%     -  154s
     0     2 23327.6271    0 1438 24344.0000 23327.6271  4.18%     -  164s
     1     2 23365.6528    1 1451 24344.0000 23365.6528  4.02%  5019  169s
     3     4 23492.1243    2 1417 24344.0000 23367.8354  4.01%  7017  171s
     9    12 23502.5172    4 1471 24344.0000 23502.5172  3.46%  3516  177s
    16    16 23504.8669    5 1472 24344.0000 23504.8669  3.45%  4874  181s
    32    30 23547.5547    7 1425 24344.0000 23504.9685  3.45%  4049  189s
H   39    30                    24300.000000 23504.9685  3.27%  4228  189s
    40    36 23547.4074    7 1439 24300.0000 23504.9685  3.27%  4458  201s
    48    47 23548.8785    8 1429 24300.0000 23504.9685  3.27%  4989  205s
    71    60 23572.2118    9 1429 24300.0000 23504.9685  3.27%  4351  211s
H   73    60                    24297.000000 23504.9685  3.26%  4238  211s
    82    64 23609.0574   11 1413 24297.0000 23504.9685  3.26%  4099  216s
    99    68 23688.3652   13 1435 24297.0000 23504.9685  3.26%  4009  226s
H  112    72                    24285.000000 23504.9685  3.21%  3949  231s
   122    74 23715.3766   15 1442 24285.0000 23504.9685  3.21%  3901  236s
   142    79 23783.0706   19 1442 24285.0000 23504.9685  3.21%  3747  243s
   153    85 23847.6510   20 1480 24285.0000 23504.9685  3.21%  3864  249s
   163    99 23861.9627   21 1389 24285.0000 23504.9685  3.21%  3989  253s
   183   103 23923.1716   22 1365 24285.0000 23504.9685  3.21%  3766  259s
   193   101 23864.9816   22 1388 24285.0000 23504.9685  3.21%  3825  266s
   213   105 24104.1244   23 1357 24285.0000 23504.9685  3.21%  3788  273s
   223   116 23901.2872   24 1477 24285.0000 23504.9685  3.21%  3859  281s
   236   123 23912.0216   25 1475 24285.0000 23504.9685  3.21%  3931  288s
   246   131 23918.0144   26 1456 24285.0000 23504.9685  3.21%  4009  299s
   256   145     cutoff   28      24285.0000 23535.9831  3.08%  4148  305s
   282   152 23655.4718    7 1425 24285.0000 23535.9831  3.08%  3970  314s
   291   167 23687.1385    8 1423 24285.0000 23535.9831  3.08%  3906  325s
   319   177 infeasible   13      24285.0000 23535.9831  3.08%  3899  333s
   333   183     cutoff   13      24285.0000 23535.9831  3.08%  3989  343s
   354   194 24082.4487   16 1379 24285.0000 23535.9831  3.08%  4091  375s
   371   209 24111.4290   18 1250 24285.0000 23535.9831  3.08%  4188  386s
   395   220 24118.4798   21 1057 24285.0000 23535.9831  3.08%  4192  401s
   410   226 24177.0495   24  989 24285.0000 23535.9831  3.08%  4381  412s
   432   220 24283.6670   27  838 24285.0000 23535.9831  3.08%  4390  540s
   448   222     cutoff   28      24285.0000 23535.9831  3.08%  5072  569s
   471   218     cutoff   30      24285.0000 23546.0048  3.04%  5290  591s

Cutting planes:
  Cover: 54
  Clique: 484
  MIR: 559
  StrongCG: 352
  GUB cover: 528
  Inf proof: 1
  Zero half: 7
  RLT: 3

Explored 493 nodes (3131977 simplex iterations) in 591.02 seconds (1699.81 work units)
Thread count was 8 (of 8 available processors)

Solution count 10: 24285 24297 24300 ... 24550

Time limit reached
Best objective 2.428500000000e+04, best bound 2.354600482666e+04, gap 3.0430%
